NAME: berlin52-16-4
TYPE: TSP
COMMENT: min_cost = 5090.23
DIMENSION: 16
EDGE_WEIGHT_TYPE: EUC_2D
NODE_COORD_SECTION
1 975 580
2 565 575
3 685 595
4 1740 245
5 760 650
6 25 230
7 685 610
8 1530 5
9 1220 580
10 1340 725
11 300 465
12 575 665
13 345 750
14 580 1175
15 720 635
16 415 635
EOF
